SDVRP instances/custom_instances/p02_10_split0.vrp
NAME:p02_10_split
BEST_KNOWN: 0
COMMENT: 0
DIMENSION: 380
CAPACITY: 140
EDGE_WEIGHT_FORMAT: FUNCTION
EDGE_WEIGHT_TYPE: EXACT_2D
NODE_COORD_SECTION
1 0.00000 0.00000
2 -17 -42
3 -17 -42
4 -17 -42
5 -48 4
6 -48 4
7 -48 4
8 23 36
9 23 36
10 23 36
11 23 36
12 23 36
13 23 36
14 23 36
15 23 36
16 15 -46
17 15 -46
18 15 -46
19 15 -46
20 15 -46
21 15 -46
22 15 -46
23 15 -46
24 15 -46
25 30 -5
26 30 -5
27 30 -5
28 30 -5
29 30 -5
30 30 -5
31 -33 -7
32 -33 -7
33 -33 -7
34 -46 11
35 -46 11
36 -46 11
37 -46 11
38 -46 11
39 -1 -49
40 -1 -49
41 4 -37
42 4 -37
43 4 -37
44 -8 -24
45 -8 -24
46 -8 -24
47 -8 -24
48 -8 -24
49 -8 -24
50 -8 -24
51 -8 -24
52 12 -38
53 12 -38
54 12 -38
55 12 -38
56 12 -38
57 12 -38
58 25 -26
59 25 -26
60 25 -26
61 25 -26
62 14 42
63 14 42
64 14 42
65 14 42
66 14 42
67 14 42
68 19 -34
69 19 -34
70 19 -34
71 19 -34
72 21 -21
73 21 -21
74 37 -36
75 37 -36
76 37 -36
77 37 -36
78 37 -36
79 37 -36
80 37 -36
81 14 4
82 14 4
83 14 4
84 14 4
85 -27 29
86 -27 29
87 -27 29
88 -27 29
89 -27 29
90 -27 29
91 -27 29
92 -27 29
93 -40 -11
94 -40 -11
95 -40 -11
96 41 -44
97 41 -44
98 41 -44
99 41 -44
100 41 -44
101 41 -44
102 41 -44
103 41 -44
104 -40 -49
105 -40 -49
106 -40 -49
107 -28 -18
108 -28 -18
109 -28 -18
110 36 -24
111 36 -24
112 36 -24
113 36 -24
114 10 -46
115 10 -46
116 10 -46
117 10 -46
118 10 -46
119 10 -46
120 25 39
121 25 39
122 36 -39
123 36 -39
124 21 16
125 21 16
126 21 16
127 21 16
128 21 16
129 21 16
130 3 -32
131 3 -32
132 3 -32
133 3 -32
134 3 -32
135 3 -32
136 3 -32
137 -37 -50
138 -37 -50
139 -37 -50
140 -37 -50
141 -37 -50
142 -37 -50
143 -32 -32
144 -32 -32
145 -32 -32
146 -32 -32
147 -32 -32
148 -32 -32
149 -32 -32
150 -32 -32
151 -47 -48
152 -47 -48
153 -47 -48
154 -47 -48
155 -47 -48
156 -47 -48
157 -47 -48
158 -47 -48
159 -47 -48
160 -20 -4
161 -20 -4
162 -20 -4
163 -20 -4
164 -20 -4
165 -20 -4
166 -20 -4
167 -20 -4
168 8 -21
169 8 -21
170 8 -21
171 8 -21
172 8 -21
173 8 -21
174 8 -21
175 11 23
176 11 23
177 11 23
178 11 23
179 11 23
180 11 23
181 11 23
182 11 23
183 11 23
184 43 35
185 43 35
186 43 35
187 43 35
188 43 35
189 43 -6
190 43 -6
191 43 -6
192 41 20
193 41 20
194 41 20
195 41 20
196 41 20
197 41 20
198 41 20
199 4 -4
200 4 -4
201 4 -4
202 4 -4
203 4 -4
204 -8 -46
205 -8 -46
206 -8 -46
207 -8 -46
208 -35 19
209 -35 19
210 -35 19
211 3 32
212 3 32
213 3 32
214 3 32
215 3 32
216 3 32
217 5 -27
218 5 -27
219 5 -27
220 5 -27
221 5 -27
222 5 -27
223 5 -27
224 5 -27
225 15 23
226 15 23
227 15 23
228 15 23
229 15 23
230 14 -11
231 14 -11
232 14 -11
233 14 -11
234 14 -11
235 14 -11
236 14 -11
237 14 -11
238 14 -11
239 -44 -33
240 -44 -33
241 -44 -33
242 -44 -33
243 -23 22
244 -23 22
245 -23 22
246 -5 44
247 -5 44
248 -5 44
249 7 11
250 7 11
251 7 11
252 7 11
253 44 -1
254 44 -1
255 44 -1
256 44 -1
257 44 -1
258 44 -1
259 44 -1
260 -42 5
261 -42 5
262 -42 5
263 -42 5
264 -42 5
265 -42 5
266 -42 5
267 -42 -10
268 -42 -10
269 -42 -10
270 -42 -10
271 2 42
272 2 42
273 2 42
274 2 42
275 39 28
276 39 28
277 39 28
278 39 28
279 39 28
280 39 28
281 39 28
282 42 35
283 42 35
284 -50 -16
285 -50 -16
286 -50 -16
287 -50 -16
288 -50 -16
289 -50 -16
290 32 -22
291 32 -22
292 50 -44
293 50 -44
294 50 -44
295 50 -44
296 50 -44
297 50 -44
298 50 -44
299 19 -1
300 19 -1
301 19 -1
302 19 -1
303 19 -1
304 -16 20
305 -16 20
306 -16 20
307 -16 20
308 -16 20
309 -16 20
310 -16 20
311 -11 -44
312 -11 -44
313 -11 -44
314 -11 -44
315 20 -33
316 20 -33
317 20 -33
318 20 -33
319 20 -33
320 20 -33
321 20 -33
322 -12 -12
323 -12 -12
324 -27 -2
325 -27 -2
326 -27 -2
327 -27 -2
328 -26 -45
329 -26 -45
330 -26 -45
331 -26 -45
332 -26 -45
333 -26 -45
334 -26 -45
335 -41 -23
336 -41 -23
337 -28 -12
338 -28 -12
339 32 16
340 32 16
341 32 16
342 32 16
343 45 -14
344 45 -14
345 28 46
346 28 46
347 -32 -29
348 -32 -29
349 -32 -29
350 -32 -29
351 15 48
352 15 48
353 15 48
354 -48 -2
355 -48 -2
356 -48 -2
357 -48 -2
358 -48 -2
359 -48 -2
360 -48 -2
361 -48 -2
362 -44 48
363 -44 48
364 -44 48
365 -44 48
366 -44 48
367 -44 48
368 -44 48
369 -44 48
370 7 40
371 7 40
372 7 40
373 7 40
374 7 40
375 7 40
376 7 40
377 -40 5
378 -40 5
379 -40 5
380 -40 5
DEMAND_SECTION
1 0
2 28
3 14
4 1
5 28
6 28
7 1
8 28
9 28
10 1
11 1
12 1
13 1
14 1
15 1
16 28
17 28
18 7
19 1
20 1
21 1
22 1
23 1
24 1
25 28
26 1
27 1
28 1
29 1
30 1
31 28
32 28
33 7
34 28
35 28
36 1
37 1
38 1
39 28
40 7
41 28
42 14
43 1
44 28
45 14
46 7
47 1
48 1
49 1
50 1
51 1
52 28
53 28
54 7
55 1
56 1
57 1
58 28
59 28
60 7
61 1
62 14
63 7
64 1
65 1
66 1
67 1
68 28
69 14
70 1
71 1
72 14
73 7
74 28
75 14
76 7
77 1
78 1
79 1
80 1
81 14
82 7
83 1
84 1
85 14
86 7
87 1
88 1
89 1
90 1
91 1
92 1
93 28
94 1
95 1
96 28
97 14
98 1
99 1
100 1
101 1
102 1
103 1
104 28
105 28
106 1
107 28
108 28
109 1
110 28
111 28
112 1
113 1
114 14
115 7
116 1
117 1
118 1
119 1
120 14
121 7
122 28
123 28
124 28
125 1
126 1
127 1
128 1
129 1
130 28
131 14
132 7
133 1
134 1
135 1
136 1
137 28
138 7
139 1
140 1
141 1
142 1
143 28
144 14
145 7
146 1
147 1
148 1
149 1
150 1
151 28
152 14
153 7
154 1
155 1
156 1
157 1
158 1
159 1
160 28
161 14
162 7
163 1
164 1
165 1
166 1
167 1
168 14
169 1
170 1
171 1
172 1
173 1
174 1
175 28
176 14
177 7
178 1
179 1
180 1
181 1
182 1
183 1
184 28
185 14
186 7
187 1
188 1
189 28
190 28
191 7
192 28
193 28
194 1
195 1
196 1
197 1
198 1
199 28
200 7
201 1
202 1
203 1
204 28
205 14
206 1
207 1
208 28
209 1
210 1
211 14
212 7
213 1
214 1
215 1
216 1
217 28
218 28
219 1
220 1
221 1
222 1
223 1
224 1
225 28
226 14
227 1
228 1
229 1
230 28
231 28
232 7
233 1
234 1
235 1
236 1
237 1
238 1
239 14
240 7
241 1
242 1
243 28
244 14
245 7
246 28
247 1
248 1
249 28
250 28
251 1
252 1
253 28
254 14
255 1
256 1
257 1
258 1
259 1
260 28
261 1
262 1
263 1
264 1
265 1
266 1
267 28
268 14
269 7
270 1
271 28
272 28
273 7
274 1
275 28
276 28
277 1
278 1
279 1
280 1
281 1
282 28
283 28
284 14
285 7
286 1
287 1
288 1
289 1
290 28
291 7
292 28
293 7
294 1
295 1
296 1
297 1
298 1
299 28
300 28
301 1
302 1
303 1
304 28
305 14
306 7
307 1
308 1
309 1
310 1
311 14
312 1
313 1
314 1
315 28
316 14
317 1
318 1
319 1
320 1
321 1
322 28
323 7
324 28
325 14
326 7
327 1
328 14
329 7
330 1
331 1
332 1
333 1
334 1
335 28
336 7
337 14
338 7
339 28
340 28
341 7
342 1
343 28
344 14
345 28
346 14
347 28
348 28
349 7
350 1
351 28
352 28
353 1
354 28
355 28
356 1
357 1
358 1
359 1
360 1
361 1
362 28
363 14
364 7
365 1
366 1
367 1
368 1
369 1
370 28
371 14
372 7
373 1
374 1
375 1
376 1
377 28
378 14
379 7
380 1
DEPOT_SECTION
1
-1
EOF