SDVRP instances/custom_instances/p02_10_split0.sol
379 -3 2 1 138 140 136 137 139 141 105 103 104 -26 24 25 189 190 188 252 254 257 253 256 258 255 -29 28 27 343 342 111 110 112 109 290 289 -31 30 32 337 336 106 107 -35 33 37 34 36 259 264 378 379 376 377 -42 41 40 38 39 206 205 204 203 313 312 311 310 -52 70 69 67 68 319 318 316 314 315 317 320 71 72 -56 55 54 51 53 22 20 17 15 21 19 16 23 18 118 114 113 115 116 117 -59 60 57 58 121 122 79 77 237 233 236 231 234 232 -75 73 76 78 74 292 294 291 297 296 295 293 100 99 96 101 102 98 95 97 -93 92 94 285 286 287 283 284 288 268 266 267 269 323 325 -108 334 335 238 240 241 239 155 150 152 153 154 158 151 156 157 331 330 329 332 333 328 327 -123 125 127 124 128 126 185 187 184 186 183 282 281 -135 130 129 134 133 132 131 44 45 48 46 47 49 50 43 321 -165 163 164 166 161 162 160 159 242 244 243 309 303 305 -174 175 225 224 338 339 -179 178 176 182 181 345 344 120 119 10 8 13 14 9 11 7 12 227 228 226 -180 177 62 65 64 66 63 61 352 350 351 375 370 369 373 372 371 374 -200 198 202 199 201 -207 208 209 364 362 363 365 367 361 368 366 90 86 88 87 89 85 91 84 307 306 308 304 -211 210 215 214 213 212 273 270 272 271 247 245 246 -219 222 218 220 217 216 223 221 169 167 172 173 171 170 168 230 229 235 -248 250 251 249 82 80 83 81 301 299 302 298 300 -265 263 260 262 261 4 5 6 355 353 360 359 356 358 357 354 324 326 -276 274 279 280 275 278 277 196 193 195 197 191 194 192 340 341 -322 145 148 144 146 147 149 142 143 348 346 349 347 0 





OBJ=
2512.091
BEST_KNOWN=
0.000